NAME : u574.16689.tour
COMMENT : Length = 16689
COMMENT : Found by LKH [Keld Helsgaun] Sat May 25 06:44:30 2013
TYPE : TOUR
DIMENSION : 115
TOUR_SECTION
1
4
6
558
555
554
12
11
35
38
39
82
83
112
121
105
107
90
28
27
22
21
17
14
545
544
532
527
524
226
241
205
243
244
521
513
508
500
498
482
483
493
490
489
452
442
444
434
436
440
429
428
412
359
360
362
375
370
345
343
331
329
328
271
266
386
384
391
255
256
398
460
465
466
252
197
190
280
281
314
310
302
303
283
188
185
210
211
175
174
285
288
289
168
153
157
147
145
138
137
136
133
127
128
63
62
75
76
60
58
54
46
47
48
571
-1
EOF
